/* Função Objectivo */

max: 10 e2 + 5 e3 + 5 e4 + 10 e5 + 15 e6 + 15 e7 + 15 e8 + 10 e9;

x122 + x322 + x422 + x522 + x622 + x722 + x822 + x922 = x232 + x242 + x252 + x262 + x272 + x282 + x292 + x2102 ; 
x132 + x232 + x432 + x532 + x632 + x732 + x832 + x932 = x322 + x342 + x352 + x362 + x372 + x382 + x392 + x3102 ; 
x142 + x242 + x342 + x542 + x642 + x742 + x842 + x942 = x422 + x432 + x452 + x462 + x472 + x482 + x492 + x4102 ; 
x152 + x252 + x352 + x452 + x652 + x752 + x852 + x952 = x522 + x532 + x542 + x562 + x572 + x582 + x592 + x5102 ; 
x162 + x262 + x362 + x462 + x562 + x762 + x862 + x962 = x622 + x632 + x642 + x652 + x672 + x682 + x692 + x6102 ; 
x172 + x272 + x372 + x472 + x572 + x672 + x872 + x972 = x722 + x732 + x742 + x752 + x762 + x782 + x792 + x7102 ; 
x182 + x282 + x382 + x482 + x582 + x682 + x782 + x982 = x822 + x832 + x882 + x882 + x882 + x882 + x892 + x8102 ; 
x192 + x292 + x392 + x492 + x592 + x692 + x792 + x892 = x922 + x932 + x942 + x952 + x962 + x972 + x982 + x9102 ; 

x121 + x321 + x421 + x521 + x621 + x721 + x821 + x921 = x231 + x241 + x251 + x261 + x271 + x281 + x291 + x2101 ; 
x131 + x231 + x431 + x531 + x631 + x731 + x831 + x931 = x321 + x341 + x351 + x361 + x371 + x381 + x391 + x3101 ; 
x141 + x241 + x341 + x541 + x641 + x741 + x841 + x941 = x421 + x431 + x451 + x461 + x471 + x481 + x491 + x4101 ; 
x151 + x251 + x351 + x451 + x651 + x751 + x851 + x951 = x521 + x531 + x541 + x561 + x571 + x581 + x591 + x5101 ; 
x161 + x261 + x361 + x461 + x561 + x761 + x861 + x961 = x621 + x631 + x641 + x651 + x671 + x681 + x691 + x6101 ; 
x171 + x271 + x371 + x471 + x571 + x671 + x871 + x971 = x721 + x731 + x741 + x751 + x761 + x781 + x791 + x7101 ; 
x181 + x281 + x381 + x481 + x581 + x681 + x781 + x981 = x821 + x831 + x881 + x881 + x881 + x881 + x891 + x8101 ; 
x191 + x291 + x391 + x491 + x591 + x691 + x791 + x891 = x921 + x931 + x941 + x951 + x961 + x971 + x981 + x9101 ; 

/* restriçoes de saida dos carros. */
x121 + x131 + x141 + x151 + x161 + x171 + x181 + x191 = 1;
x122 + x132 + x142 + x152 + x162 + x172 + x182 + x192 = 1;

x2101 + x3101 + x4101 + x5101 + x6101 + x7101 + x8101 + x9101 = 1;
x2102 + x3102 + x4102 + x5102 + x6102 + x7102 + x8102 + x9102 = 1;

/* restrições de entrada em pontos. */
e2 = x121 + x321 + x421 + x521 + x621 + x721 + x821 + x921 + x122 + x322 + x422 + x522 + x622 + x722 + x822 + x922 ;
e2 <= 1;

e3 = x131 + x231 + x431 + x531 + x631 + x731 + x831 + x931 + x132 + x232 + x432 + x532 + x632 + x732 + x832 + x932 ;
e3 <= 1;

e4 = x141 + x241 + x341 + x541 + x641 + x741 + x841 + x941 + x142 + x242 + x342 + x542 + x642 + x742 + x842 + x942 ;
e4 <= 1;

e5 = x151 + x251 + x351 + x451 + x651 + x751 + x851 + x951 + x152 + x252 + x352 + x452 + x652 + x752 + x852 + x952 ;
e5 <= 1;

e6 = x161 + x261 + x361 + x461 + x561 + x761 + x861 + x961 + x162 + x262 + x362 + x462 + x562 + x762 + x862 + x962 ;
e6 <= 1;

e7 = x171 + x271 + x371 + x471 + x571 + x671 + x871 + x971 + x172 + x272 + x372 + x472 + x572 + x672 + x872 + x972 ;
e7 <= 1;

e8 = x181 + x281 + x381 + x481 + x581 + x681 + x781 + x981 + x182 + x282 + x382 + x482 + x582 + x682 + x782 + x982 ;
e8 <= 1;

e9 = x191 + x291 + x391 + x491 + x591 + x691 + x791 + x891 + x192 + x292 + x392 + x492 + x592 + x692 + x792 + x892 ;
e9 <= 1;

/* restrição para o carro 1. */
/*7.65 x121+ 5.90 x131+ 6.81 x141+ 9.94 x151+ 7.75 x161+ 10.09 x171+ 5.96 x181+ 5.91 x191+ 3.11 x231+ 2.48 x241+ 11.52 x251+ 11.32 x261+ 13.34 x271+ 10.56 x281+ 13.3 x291+ 7.03 x2101+ 3.11 x321+ 4.50 x341+ 8.52 x351+ 8.22 x361+ 13.92 x371+ 10.45 x381+ 10.92 x391+ 5.16 x3101+ 2.48 x421+ 4.50 x431+ 12.92 x451+ 12.17 x461+ 10.93 x471+ 8.46 x481+ 12.71 x491+ 6.38 x4101+ 11.52 x521+ 8.52 x531+ 12.92 x541+ 3.05 x561+ 20.02 x571+ 15.90 x581+ 10.32 x591+ 9.43 x5101 + 11.32 x621+ 8.22 x631+ 12.17 x641+ 3.05 x651+ 17.76 x671+ 13.58 x681+ 7.28 x691+ 7.40 x6101 +13.34 x721+ 13.92 x731+ 10.93 x741+ 20.02 x751+ 17.76 x761+ 4.18 x781+ 13.02 x791+ 10.60 x7101 + 10.58 x821+ 10.45 x831+ 8.46 x841+ 15.90 x851+ 13.58 x861+ 4.18 x871+ 9.18 x891+ 6.53 x8101 +13.30 x921+ 10.92 x931+ 12.71 x941+ 10.32 x951+ 7.28 x961+ 13.02 x971+ 9.18 x981+ 6.35 x9101 <= 21.2; */

/* restricao para o carro 2. */
7.65 x122+ 5.90 x132+ 6.81 x142+ 9.94 x152+ 7.75 x162+ 10.09 x172+ 5.96 x182+ 5.91 x192+ 3.11 x232+ 2.48 x242+ 11.52 x252+ 11.32 x262+ 13.34 x272+ 10.56 x282+ 13.3 x292+ 7.03 x2102+ 3.11 x322+ 4.50 x342+ 8.52 x352+ 8.22 x362+ 13.92 x372+ 10.45 x382+ 10.92 x392+ 5.16 x3102+ 2.48 x422+ 4.50 x432+ 12.92 x452+ 12.17 x462+ 10.93 x472+ 8.46 x482+ 12.71 x492+ 6.38 x4102+ 9.94 x522+ 11.52 x532+ 8.52 x542+ 12.92 x562+ 3.05 x572+ 20.02 x582+ 15.90 x592+ 10.32 x5102+ 7.75 x622+ 11.32 x632+ 8.22 x642+ 12.17 x652+ 3.05 x672+ 17.76 x682+ 13.58 x692+ 7.28 x6102+ 10.09 x722+ 13.34 x732+ 13.92 x742+ 10.93 x752+ 20.02 x762+ 17.76 x782+ 4.18 x792+ 13.02 x7102+ 5.96 x822+ 10.58 x832+ 10.45 x842+ 8.46 x852+ 15.90 x862+ 13.58 x872+ 4.18 x892+ 9.18 x8102+ 13.30 x922+ 10.92 x932+ 12.71 x942+ 10.32 x952+ 7.28 x962+ 13.02 x972+ 9.18 x982+ 6.35 x9102 <= 21.2; 

7.65 x121+ 5.90 x131+ 6.81 x141+ 9.94 x151+ 7.75 x161+ 10.09 x171+ 5.96 x181+ 5.91 x191+ 3.11 x231+ 2.48 x241+ 11.52 x251+ 11.32 x261+ 13.34 x271+ 10.56 x281+ 13.3 x291+ 7.03 x2101+ 3.11 x321+ 4.50 x341+ 8.52 x351+ 8.22 x361+ 13.92 x371+ 10.45 x381+ 10.92 x391+ 5.16 x3101+ 2.48 x421+ 4.50 x431+ 12.92 x451+ 12.17 x461+ 10.93 x471+ 8.46 x481+ 12.71 x491+ 6.38 x4101+ 9.94 x521+ 11.52 x531+ 8.52 x541+ 12.92 x561+ 3.05 x571+ 20.02 x581+ 15.90 x591+ 10.32 x5101+ 7.75 x621+ 11.32 x631+ 8.22 x641+ 12.17 x651+ 3.05 x671+ 17.76 x681+ 13.58 x691+ 7.28 x6101+ 10.09 x721+ 13.34 x731+ 13.92 x741+ 10.93 x751+ 20.02 x761+ 17.76 x781+ 4.18 x791+ 13.02 x7101+ 5.96 x821+ 10.58 x831+ 10.45 x841+ 8.46 x851+ 15.90 x861+ 13.58 x871+ 4.18 x891+ 9.18 x8101+ 13.30 x921+ 10.92 x931+ 12.71 x941+ 10.32 x951+ 7.28 x961+ 13.02 x971+ 9.18 x981+ 6.35 x9101 <= 21.2; 

/* variavel de entrada em cada ponto. */
bin e2,e3,e4,e5,e6,e7,e8,e9;

/* variavel binária para o transporte 1. */
bin x121, x131, x141, x151, x161, x171, x181, x191;
bin x211, x231, x241, x251, x261, x271, x281, x291, x2101;
bin x311, x321, x341, x351, x361, x371, x381, x391, x3101;
bin x411, x421, x431, x451, x461, x471, x481, x491, x4101;
bin x511, x521, x531, x541, x561, x571, x581, x591, x5101;
bin x611, x621, x631, x641, x651, x671, x681, x691, x6101;
bin x711, x721, x731, x741, x751, x761, x781, x791, x7101;
bin x811, x821, x831, x841, x851, x861, x871, x891, x8101;
bin x911, x921, x931, x941, x951, x961, x971, x981, x9101;

/* variavel binária para o transporte 2. */
bin x122, x132, x142, x152, x162, x172, x182, x192;
bin x212, x232, x242, x252, x262, x272, x282, x292, x2102;
bin x312, x322, x342, x352, x362, x372, x382, x392, x3102;
bin x412, x422, x432, x452, x462, x472, x482, x492, x4102;
bin x512, x522, x532, x542, x562, x572, x582, x592, x5102;
bin x612, x622, x632, x642, x652, x672, x682, x692, x6102;
bin x712, x722, x732, x742, x752, x762, x782, x792, x7102;
bin x812, x822, x832, x842, x852, x862, x872, x892, x8102;
bin x912, x922, x932, x942, x952, x962, x972, x982, x9102;

